400, 31999400
743, 160401
594, 160402
519, 160403
786, 160404
301, 160405
899, 160406
965, 160407
780, 160408
610, 160409
566, 160410
408, 160411
746, 160412
104, 160413
191, 160414
854, 160415
544, 160416
822, 160417
249, 160418
365, 160419
561, 160420
756, 160421
859, 160422
743, 160423
816, 160424
380, 160425
863, 160426
879, 160427
332, 160428
338, 160429
590, 160430
82, 160431
969, 160432
221, 160433
588, 160434
223, 160435
134, 160436
435, 160437
338, 160438
487, 160439
137, 160440
968, 160441
62, 160442
300, 160443
684, 160444
703, 160445
692, 160446
549, 160447
147, 160448
879, 160449
344, 160450
232, 160451
347, 160452
583, 160453
401, 160454
599, 160455
564, 160456
601, 160457
280, 160458
603, 160459
792, 160460
530, 160461
486, 160462
51, 160463
113, 160464
488, 160465
25, 160466
710, 160467
734, 160468
890, 160469
646, 160470
188, 160471
214, 160472
947, 160473
728, 160474
632, 160475
122, 160476
255, 160477
871, 160478
648, 160479
15, 160480
396, 160481
650, 160482
643, 160483
209, 160484
258, 160485
469, 160486
545, 160487
193, 160488
731, 160489
10, 160490
63, 160491
152, 160492
43, 160493
28, 160494
888, 160495
305, 160496
504, 160497
103, 160498
84, 160499
58, 160500
554, 160501
817, 160502
812, 160503
619, 160504
732, 160505
580, 160506
963, 160507
428, 160508
417, 160509
953, 160510
366, 160511
275, 160512
935, 160513
813, 160514
628, 160515
12, 160516
407, 160517
23, 160518
647, 160519
142, 160520
514, 160521
376, 160522
761, 160523
844, 160524
853, 160525
209, 160526
967, 160527
201, 160528
701, 160529
920, 160530
737, 160531
746, 160532
755, 160533
578, 160534
31, 160535
800, 160536
313, 160537
698, 160538
557, 160539
683, 160540
99, 160541
16, 160542
975, 160543
15, 160544
551, 160545
123, 160546
733, 160547
362, 160548
564, 160549
991, 160550
368, 160551
315, 160552
710, 160553
951, 160554
82, 160555
692, 160556
384, 160557
147, 160558
90, 160559
681, 160560
288, 160561
850, 160562
349, 160563
615, 160564
814, 160565
234, 160566
589, 160567
317, 160568
404, 160569
338, 160570
470, 160571
765, 160572
999, 160573
566, 160574
851, 160575
299, 160576
796, 160577
218, 160578
5, 160579
908, 160580
187, 160581
973, 160582
988, 160583
584, 160584
591, 160585
840, 160586
315, 160587
457, 160588
956, 160589
820, 160590
559, 160591
193, 160592
535, 160593
607, 160594
872, 160595
39, 160596
97, 160597
935, 160598
47, 160599
338, 160600
980, 160601
308, 160602
846, 160603
708, 160604
75, 160605
530, 160606
67, 160607
319, 160608
926, 160609
732, 160610
140, 160611
347, 160612
403, 160613
562, 160614
283, 160615
614, 160616
406, 160617
211, 160618
979, 160619
697, 160620
201, 160621
219, 160622
8, 160623
898, 160624
612, 160625
38, 160626
299, 160627
436, 160628
173, 160629
698, 160630
452, 160631
679, 160632
905, 160633
17, 160634
589, 160635
662, 160636
553, 160637
708, 160638
317, 160639
644, 160640
669, 160641
416, 160642
170, 160643
894, 160644
788, 160645
572, 160646
525, 160647
891, 160648
105, 160649
633, 160650
378, 160651
790, 160652
39, 160653
848, 160654
4, 160655
482, 160656
693, 160657
63, 160658
933, 160659
764, 160660
915, 160661
852, 160662
147, 160663
237, 160664
411, 160665
263, 160666
132, 160667
429, 160668
168, 160669
596, 160670
339, 160671
840, 160672
17, 160673
14, 160674
671, 160675
300, 160676
758, 160677
245, 160678
986, 160679
321, 160680
930, 160681
840, 160682
695, 160683
671, 160684
271, 160685
707, 160686
699, 160687
75, 160688
620, 160689
354, 160690
573, 160691
889, 160692
66, 160693
932, 160694
734, 160695
739, 160696
250, 160697
464, 160698
929, 160699
600, 160700
512, 160701
306, 160702
11, 160703
253, 160704
819, 160705
215, 160706
515, 160707
727, 160708
410, 160709
188, 160710
299, 160711
486, 160712
311, 160713
362, 160714
133, 160715
972, 160716
23, 160717
373, 160718
558, 160719
643, 160720
240, 160721
40, 160722
21, 160723
258, 160724
170, 160725
841, 160726
940, 160727
464, 160728
886, 160729
323, 160730
758, 160731
503, 160732
529, 160733
863, 160734
839, 160735
746, 160736
337, 160737
697, 160738
479, 160739
414, 160740
142, 160741
513, 160742
598, 160743
716, 160744
634, 160745
238, 160746
121, 160747
589, 160748
873, 160749
44, 160750
939, 160751
84, 160752
129, 160753
855, 160754
28, 160755
31, 160756
19, 160757
389, 160758
165, 160759
414, 160760
527, 160761
472, 160762
978, 160763
578, 160764
203, 160765
57, 160766
398, 160767
303, 160768
781, 160769
205, 160770
297, 160771
786, 160772
268, 160773
604, 160774
357, 160775
818, 160776
610, 160777
580, 160778
636, 160779
994, 160780
764, 160781
506, 160782
244, 160783
741, 160784
168, 160785
137, 160786
922, 160787
289, 160788
645, 160789
567, 160790
770, 160791
852, 160792
254, 160793
375, 160794
117, 160795
497, 160796
879, 160797
810, 160798
528, 160799
300, 160800
